NAME: random95
TYPE: TSP
DIMENSION: 95
EDGE_WEIGHT_TYPE: EXPLICIT
EDGE_WEIGHT_FORMAT: FULL_MATRIX
EDGE_WEIGHT_SECTION
0 132 132 132 132 132 42 132 21 132 34 16 132 4 132 132 21 29 38 15 132 29 132 132 12 132 132 132 132 132 132 132 132 36 34 132 132 132 14 132 132 42 6 25 132 132 132 132 132 22 132 132 132 132 45 26 132 36 28 132 132 132 132 132 15 20 132 132 24 132 132 132 132 23 18 132 34 132 132 132 132 37 132 32 132 132 132 132 132 30 132 132 18 132 132
132 0 38 29 29 45 132 132 132 34 132 132 132 132 52 132 132 132 132 132 44 132 28 132 132 132 8 132 132 62 46 27 132 132 132 24 132 132 132 132 132 132 132 132 132 132 18 132 15 132 6 132 51 132 132 132 132 132 132 19 132 132 20 41 132 132 31 132 132 132 132 132 132 132 132 132 132 25 35 17 132 132 33 132 33 132 132 37 132 132 28 132 132 32 53
132 38 0 132 25 9 132 21 132 132 45 132 24 132 15 19 132 132 132 132 132 132 10 16 132 132 132 132 132 132 11 132 32 132 132 14 132 37 132 44 132 132 132 132 132 27 132 24 39 132 36 10 132 15 132 132 42 132 132 20 132 132 132 132 132 132 8 132 132 22 132 132 132 132 132 132 132 17 132 132 132 132 24 132 18 132 29 18 132 132 47 132 132 12 132
132 29 132 0 132 132 23 132 132 14 50 132 132 132 132 132 38 132 44 132 28 49 132 46 132 132 32 132 45 132 132 24 132 22 132 32 44 132 132 132 22 132 132 132 29 132 132 132 43 132 23 34 38 132 132 132 132 132 31 33 22 132 48 23 132 132 132 132 132 50 132 39 15 132 132 22 36 26 26 12 12 27 21 132 132 132 24 29 40 39 56 132 132 32 132
132 29 25 132 0 25 132 41 132 132 132 132 49 132 32 41 132 132 132 132 71 132 17 41 132 132 35 132 132 90 26 55 54 132 132 20 132 58 132 132 132 132 132 132 132 132 18 48 20 132 30 132 79 40 132 132 132 132 132 17 132 72 19 132 132 132 23 60 132 47 132 132 132 132 132 132 132 27 63 40 132 132 39 132 7 132 132 37 132 132 23 132 132 29 80
132 45 9 132 25 0 132 16 132 132 51 132 26 132 8 17 132 132 132 132 132 132 17 20 132 132 132 132 132 132 2 132 29 132 132 22 132 33 132 48 132 132 132 132 132 26 42 24 42 132 43 19 132 17 132 132 41 132 132 26 132 132 43 132 132 132 16 132 132 25 132 132 132 132 132 132 132 26 132 132 132 132 132 132 18 132 38 27 132 132 48 132 132 21 132
42 132 132 23 132 132 0 132 26 36 26 132 34 38 132 132 21 132 46 41 132 26 132 30 45 132 132 132 132 132 132 132 132 19 27 132 132 132 132 32 4 40 48 25 41 132 132 132 132 57 132 26 132 35 49 50 51 47 14 132 32 132 132 44 29 132 132 132 132 32 132 132 8 132 132 21 36 25 132 30 13 29 14 44 132 52 6 17 44 38 132 132 132 25 132
132 132 21 132 41 16 132 0 132 132 132 132 17 132 10 6 132 132 132 132 132 132 31 17 132 132 68 132 132 132 15 132 13 132 132 132 132 17 132 39 132 132 132 132 132 13 58 11 59 132 132 132 100 12 51 132 26 132 132 41 132 31 60 132 132 132 132 20 132 18 132 132 132 132 132 132 132 132 132 132 132 132 132 132 34 34 132 132 132 132 64 132 132 132 132
21 132 132 132 132 132 26 132 0 132 13 132 132 19 132 132 12 132 47 14 132 8 132 132 30 132 132 132 132 132 132 132 132 31 13 132 132 132 35 132 132 25 26 4 132 132 132 132 132 30 132 132 132 132 30 42 132 24 17 132 132 132 132 132 7 40 132 132 132 132 132 132 132 43 38 32 39 132 132 132 36 38 132 42 132 132 132 132 132 38 132 132 132 132 132
132 34 132 14 132 132 36 132 132 0 132 132 132 132 132 132 132 132 40 132 14 132 132 132 132 132 34 132 40 33 132 15 132 28 132 45 36 132 132 132 35 132 132 132 20 132 132 132 49 132 30 132 24 132 132 132 132 132 132 44 18 132 54 9 132 132 132 132 132 132 132 25 28 132 132 27 35 40 14 20 23 27 35 132 132 132 38 43 35 39 61 132 132 46 24
34 132 45 50 132 51 26 132 13 132 0 132 28 32 50 39 22 132 132 24 132 6 132 31 132 132 132 132 132 132 51 132 132 38 1 132 132 132 132 9 29 15 38 9 132 33 132 34 132 38 132 40 132 35 23 132 34 21 23 132 53 42 132 132 20 132 132 36 132 27 132 132 35 132 132 40 132 45 132 56 38 46 36 132 132 32 28 33 132 49 132 132 132 40 132
16 132 132 132 132 132 132 132 132 132 132 0 132 17 132 132 31 15 27 31 132 132 132 132 6 28 132 132 132 132 132 132 132 38 132 132 132 132 7 132 132 132 17 132 132 132 132 132 132 35 132 132 132 132 132 12 132 132 132 132 132 132 132 132 29 19 132 132 9 132 41 132 132 23 17 132 27 132 132 132 132 34 132 22 132 132 132 132 132 23 132 132 10 132 132
132 132 24 132 49 26 34 17 132 132 28 132 0 132 23 12 132 132 132 132 132 33 34 9 132 132 132 132 132 132 26 132 15 132 28 132 132 22 132 23 33 29 132 132 132 8 132 7 132 132 132 25 132 9 37 132 20 41 132 132 132 28 132 132 132 132 29 17 132 3 132 132 132 132 132 132 132 34 132 132 132 132 32 132 42 25 30 24 132 132 71 132 132 27 132
4 132 132 132 132 132 38 132 19 132 32 17 132 0 132 132 17 28 35 16 132 26 132 132 12 37 132 132 38 132 132 132 132 32 32 132 132 132 16 132 132 41 10 23 132 132 132 132 132 25 132 132 132 132 44 25 132 36 24 132 43 132 132 132 12 23 132 132 24 132 132 132 132 27 21 32 30 132 132 132 43 33 132 30 132 132 132 132 39 28 132 132 21 132 132
132 52 15 132 32 8 132 10 132 132 50 132 23 132 0 12 132 132 132 132 86 132 24 19 132 132 60 132 132 104 6 74 23 132 132 29 132 27 132 46 132 132 132 132 132 21 49 19 50 132 50 24 95 15 59 132 36 132 132 33 132 41 50 132 132 132 23 30 132 23 132 132 132 132 132 132 132 32 81 54 132 132 132 132 24 44 42 31 132 132 55 132 132 132 95
132 132 19 132 41 17 132 6 132 132 39 132 12 132 12 0 132 132 132 132 132 132 29 11 132 132 65 132 132 132 16 132 13 132 132 132 132 19 132 34 132 132 132 132 132 9 57 7 57 132 132 24 95 6 132 132 25 132 132 38 132 31 59 132 132 132 26 19 132 12 132 132 132 132 132 132 132 132 132 132 132 132 132 132 34 132 36 28 132 132 64 132 132 132 132
21 132 132 38 132 132 21 132 12 132 22 31 132 17 132 132 0 36 36 23 132 18 132 132 25 38 132 132 39 132 132 132 132 19 23 132 132 132 33 132 25 132 27 15 132 132 132 132 132 38 132 132 132 132 132 34 132 36 7 132 34 132 132 132 10 132 132 132 34 132 132 132 26 132 132 20 27 132 132 132 27 25 132 32 132 132 26 132 37 27 132 132 132 132 132
29 132 132 132 132 132 132 132 132 132 132 15 132 28 132 132 36 0 14 44 132 132 132 132 17 15 132 45 16 132 132 132 132 35 132 132 27 132 21 132 132 132 31 132 36 132 132 132 132 49 132 132 132 132 72 3 132 64 132 132 132 132 132 132 132 33 132 132 6 132 26 48 132 37 31 132 19 132 132 132 132 28 132 11 132 132 132 132 20 16 132 51 23 132 132
38 132 132 44 132 132 46 132 47 40 132 27 132 35 132 132 36 14 0 51 40 132 132 132 27 2 132 32 3 132 132 132 132 27 132 132 14 132 34 132 132 132 132 50 21 132 132 132 132 132 132 132 132 132 132 16 132 132 37 132 23 132 132 38 42 132 132 132 19 132 15 34 132 50 132 26 10 132 132 132 40 18 132 6 132 132 132 132 6 9 132 132 36 132 132
15 132 132 132 132 132 41 132 14 132 24 31 132 16 132 132 23 44 51 0 132 19 132 132 27 132 132 132 132 132 132 132 132 42 24 132 132 132 28 30 44 28 16 17 132 132 132 132 132 16 132 132 132 132 30 40 132 21 29 132 132 60 132 132 12 29 132 132 39 51 132 132 48 31 28 132 45 132 132 132 49 46 132 45 132 49 45 132 132 42 132 132 31 132 132
132 44 132 28 71 132 132 132 132 14 132 132 132 132 86 132 132 132 40 132 0 132 132 132 132 132 42 26 39 19 132 18 132 132 132 132 31 132 132 132 132 132 132 132 19 132 132 132 58 132 41 132 10 132 132 132 132 132 132 132 23 132 64 5 132 132 132 132 132 132 34 14 132 132 132 35 38 132 11 32 36 32 132 132 132 132 132 132 34 132 70 25 132 132 10
29 132 132 49 132 132 26 132 8 132 6 132 33 26 132 132 18 132 132 19 132 0 132 36 38 132 132 132 132 132 132 132 132 35 6 132 132 132 43 14 29 18 32 4 132 132 132 132 132 34 132 132 132 40 25 132 39 21 20 132 50 47 132 132 14 46 132 132 132 32 132 132 34 49 45 36 132 132 132 132 37 43 37 132 132 37 28 35 132 44 132 132 132 132 132
132 28 10 132 17 17 132 31 132 132 132 132 34 132 24 29 132 132 132 132 132 132 0 25 132 132 36 132 132 132 18 132 132 132 132 6 132 48 132 132 132 132 132 132 132 132 29 35 28 132 26 11 132 26 132 132 132 132 132 10 132 132 31 132 132 132 6 132 132 32 132 132 132 132 132 132 132 12 132 32 132 132 23 132 13 132 132 20 132 132 37 132 132 12 132
132 132 16 46 41 20 30 17 132 132 31 132 9 132 19 11 132 132 132 132 132 36 25 0 132 132 132 132 132 132 20 132 21 132 31 27 132 28 132 28 28 36 132 132 132 14 132 12 132 132 46 17 132 5 132 132 28 132 132 33 132 132 132 132 132 132 20 132 132 6 132 132 35 132 132 132 132 26 132 46 132 132 25 132 34 34 25 17 132 132 62 132 132 18 132
12 132 132 132 132 132 45 132 30 132 132 6 132 12 132 132 25 17 27 27 132 38 132 132 0 29 132 132 30 132 132 132 132 34 132 132 132 132 9 132 132 132 14 34 132 132 132 132 132 32 132 132 132 132 132 14 132 48 31 132 41 132 132 132 24 21 132 132 12 132 42 132 132 25 18 34 26 132 132 132 47 32 132 22 132 132 132 132 32 22 132 132 13 132 132
132 132 132 132 132 132 132 132 132 132 132 28 132 37 132 132 38 15 2 132 132 132 132 132 29 0 132 31 2 132 132 132 132 29 132 132 12 132 35 132 132 132 132 132 22 132 132 132 132 61 132 132 132 132 132 17 132 132 132 132 24 132 132 132 132 47 132 132 20 132 13 33 132 51 45 132 12 132 132 132 132 20 132 7 132 132 132 132 6 12 132 37 37 132 132
132 8 132 32 35 132 132 68 132 34 132 132 132 132 60 65 132 132 132 132 42 132 36 132 132 132 0 132 132 59 54 23 132 132 132 33 132 84 132 132 47 132 132 132 54 132 21 132 18 132 13 132 48 61 132 132 132 132 132 27 51 132 22 40 132 132 132 132 132 132 132 55 43 132 132 132 132 33 31 21 42 132 40 132 40 132 47 44 132 132 29 66 132 40 49
132 132 132 132 132 132 132 132 132 132 132 132 132 132 132 132 132 45 32 132 26 132 132 132 132 31 132 0 29 13 132 132 132 132 132 132 18 132 132 132 132 132 132 132 23 132 132 132 132 132 132 132 22 132 132 47 132 132 132 132 32 132 132 29 132 132 132 132 50 132 18 13 132 82 132 132 37 132 37 132 132 38 132 38 132 132 132 132 28 132 132 6 67 132 20
132 132 132 45 132 132 132 132 132 40 132 132 132 38 132 132 39 16 3 132 39 132 132 132 30 2 132 29 0 39 132 132 132 29 132 132 11 132 132 132 132 132 132 132 21 132 132 132 132 132 132 132 132 132 132 19 132 132 132 132 23 132 132 37 132 132 132 132 21 132 12 32 132 53 132 28 12 132 132 132 42 20 132 9 132 132 132 132 5 12 132 35 39 132 40
132 62 132 132 90 132 132 132 132 33 132 132 132 132 104 132 132 132 132 132 19 132 132 132 132 132 59 13 39 0 132 36 132 132 132 132 29 132 132 132 132 132 132 132 26 132 132 132 76 132 60 132 11 132 132 132 132 132 132 132 34 132 81 23 132 132 132 132 132 132 30 9 132 132 132 132 132 132 28 52 132 132 132 132 132 132 132 132 36 132 87 8 132 132 10
132 46 11 132 26 2 132 15 132 132 51 132 26 132 6 16 132 132 132 132 132 132 18 20 132 132 54 132 132 132 0 132 28 132 132 24 132 32 132 48 132 132 132 132 132 25 43 23 44 132 45 20 90 16 132 132 40 132 132 28 132 46 45 132 132 132 18 34 132 25 132 132 132 132 132 132 132 28 132 132 132 132 132 132 19 132 39 28 132 132 49 132 132 132 132
132 27 132 24 55 132 132 132 132 15 132 132 132 132 74 132 132 132 132 132 18 132 132 132 132 132 23 132 132 36 132 0 132 132 132 45 132 132 132 132 45 132 132 132 33 132 44 132 41 132 25 132 24 132 132 132 132 132 132 42 33 132 46 17 132 132 132 132 132 132 132 32 38 132 132 41 132 42 8 21 35 42 42 132 132 132 47 49 49 132 52 132 132 49 26
132 132 32 132 54 29 132 13 132 132 132 132 15 132 23 13 132 132 132 132 132 132 132 21 132 132 132 132 132 132 28 132 0 132 132 132 132 7 132 31 132 132 132 132 132 7 132 9 132 132 132 132 132 18 40 132 13 132 132 132 132 18 132 132 132 132 132 7 132 17 132 132 132 132 132 132 132 132 132 132 132 132 132 132 47 21 132 132 132 132 77 132 132 132 132
36 132 132 22 132 132 19 132 31 28 38 38 132 32 132 132 19 35 27 42 132 35 132 132 34 29 132 132 29 132 132 132 132 0 39 132 33 132 42 46 22 132 132 33 24 132 132 132 132 132 132 132 132 132 132 34 132 55 15 132 15 132 132 32 29 132 132 132 35 51 132 132 18 132 132 2 17 132 132 33 14 10 29 26 132 132 25 35 25 20 132 132 132 132 132
34 132 132 132 132 132 27 132 13 132 1 132 28 32 132 132 23 132 132 24 132 6 132 31 132 132 132 132 132 132 132 132 132 39 0 132 132 132 132 9 29 14 38 9 132 33 132 34 132 38 132 132 132 35 22 132 34 20 24 132 132 41 132 132 20 52 132 36 132 27 132 132 35 54 132 132 132 132 132 132 39 132 36 132 132 31 28 33 132 132 132 132 132 132 132
132 24 14 32 20 22 132 132 132 45 132 132 132 132 29 132 132 132 132 132 132 132 6 27 132 132 33 132 132 132 24 45 132 132 132 0 132 132 132 132 28 132 132 132 132 132 29 132 27 132 21 10 132 28 132 132 132 132 132 7 132 132 31 132 132 132 7 132 132 33 132 132 30 132 132 132 132 7 132 26 132 132 19 132 18 132 27 17 132 132 38 132 132 10 132
132 132 132 44 132 132 132 132 132 36 132 132 132 132 132 132 132 27 14 132 31 132 132 132 132 12 132 18 11 29 132 132 132 33 132 132 0 132 132 132 132 132 132 132 16 132 132 132 132 132 132 132 33 132 132 29 132 132 132 132 22 132 132 31 132 132 132 132 32 132 4 22 132 64 132 32 20 132 42 132 44 24 132 19 132 132 132 132 10 21 132 25 49 132 31
132 132 37 132 58 33 132 17 132 132 132 132 22 132 27 19 132 132 132 132 132 132 48 28 132 132 84 132 132 132 32 132 7 132 132 132 132 0 132 37 132 39 132 132 132 14 75 16 75 77 132 132 112 24 43 132 14 51 132 57 132 15 77 132 132 132 132 9 132 24 132 132 132 132 132 132 132 132 132 132 132 132 132 132 51 22 132 132 132 132 81 132 132 132 132
14 132 132 132 132 132 132 132 35 132 132 7 132 16 132 132 33 21 34 28 132 43 132 132 9 35 132 132 132 132 132 132 132 42 132 132 132 132 0 132 132 132 13 39 132 132 132 132 132 29 132 132 132 132 58 18 132 49 132 132 132 132 132 132 29 13 132 132 16 132 47 132 132 17 10 132 33 132 132 132 132 40 132 28 132 132 132 132 132 30 132 132 5 132 132
132 132 44 132 132 48 32 39 132 132 9 132 23 132 46 34 132 132 132 30 132 14 132 28 132 132 132 132 132 132 48 132 31 46 9 132 132 37 132 0 34 9 132 18 132 27 132 28 132 42 132 41 132 31 18 132 25 19 32 132 132 33 132 132 132 132 132 28 132 23 132 132 41 132 132 132 132 47 132 132 45 132 39 132 132 23 32 34 132 132 132 132 132 41 132
132 132 132 22 132 132 4 132 132 35 29 132 33 132 132 132 25 132 132 44 132 29 132 28 132 132 47 132 132 132 132 45 132 22 29 28 132 132 132 34 0 132 132 29 132 132 132 132 132 132 34 23 132 33 132 132 132 49 18 33 34 132 132 132 132 132 132 132 132 30 132 132 7 132 132 23 132 21 132 27 12 31 10 132 132 132 3 14 132 41 132 132 132 21 132
42 132 132 132 132 132 40 132 25 132 15 132 29 41 132 132 132 132 132 28 132 18 132 36 132 132 132 132 132 132 132 132 132 132 14 132 132 39 132 9 132 0 44 21 132 32 132 34 132 38 132 132 132 38 9 132 26 12 38 132 132 32 132 132 30 56 132 30 132 30 132 132 132 58 132 132 132 132 132 132 132 132 132 132 132 21 41 43 132 132 132 132 132 132 132
6 132 132 132 132 132 48 132 26 132 38 17 132 10 132 132 27 31 132 16 132 32 132 132 14 132 132 132 132 132 132 132 132 132 38 132 132 132 13 132 132 44 0 29 132 132 132 132 132 18 132 132 132 132 45 28 132 37 34 132 132 76 132 132 20 14 132 132 26 132 132 132 132 17 13 132 132 132 132 132 132 132 132 132 132 65 132 132 132 35 132 132 16 132 132
25 132 132 132 132 132 25 132 4 132 9 132 132 23 132 132 15 132 50 17 132 4 132 132 34 132 132 132 132 132 132 132 132 33 9 132 132 132 39 18 29 21 29 0 132 132 132 132 132 33 132 132 132 132 28 45 132 23 18 132 132 132 132 132 11 44 132 132 132 35 132 132 33 46 42 34 42 132 132 132 36 40 132 46 132 132 29 132 132 41 132 132 132 132 132
132 132 132 29 132 132 41 132 132 20 132 132 132 132 132 132 132 36 21 132 19 132 132 132 132 22 54 23 21 26 132 33 132 24 132 132 16 132 132 132 132 132 132 132 0 132 132 132 132 132 132 132 24 132 132 132 132 132 132 132 9 132 132 17 132 132 132 132 132 132 19 17 36 132 132 23 19 132 28 38 31 16 47 25 132 132 132 132 16 23 82 27 132 132 23
132 132 27 132 132 26 132 13 132 132 33 132 8 132 21 9 132 132 132 132 132 132 132 14 132 132 132 132 132 132 25 132 7 132 33 132 132 14 132 27 132 32 132 132 132 0 132 3 132 132 132 132 132 11 38 132 16 132 132 132 132 23 132 132 132 132 132 11 132 10 132 132 132 132 132 132 132 132 132 132 132 132 132 132 132 23 37 31 132 132 132 132 132 132 132
132 18 132 132 18 42 132 58 132 132 132 132 132 132 49 57 132 132 132 132 132 132 29 132 132 132 21 132 132 132 43 44 132 132 132 29 132 75 132 132 132 132 132 132 132 132 0 132 3 132 23 132 68 55 132 132 132 132 132 22 132 132 3 132 132 132 132 132 132 132 132 132 132 132 132 132 132 33 52 35 132 132 132 132 25 132 132 132 132 132 10 132 132 132 132
132 132 24 132 48 24 132 11 132 132 34 132 7 132 19 7 132 132 132 132 132 132 35 12 132 132 132 132 132 132 23 132 9 132 34 132 132 16 132 28 132 34 132 132 132 3 132 0 132 132 132 28 132 9 132 132 18 132 132 132 132 25 132 132 132 132 30 13 132 9 132 132 132 132 132 132 132 132 132 132 132 132 132 132 41 25 36 29 132 132 70 132 132 132 132
132 15 39 43 20 42 132 59 132 49 132 132 132 132 50 57 132 132 132 132 58 132 28 132 132 132 18 132 132 76 44 41 132 132 132 27 132 75 132 132 132 132 132 132 132 132 3 132 0 132 20 132 65 54 132 132 132 132 132 21 132 132 6 56 132 132 33 132 132 132 132 132 132 132 132 132 132 32 49 32 132 132 42 132 26 132 132 44 132 132 13 132 132 37 67
22 132 132 132 132 132 57 132 30 132 38 35 132 25 132 132 38 49 132 16 132 34 132 132 32 61 132 132 132 132 132 132 132 132 38 132 132 77 29 42 132 38 18 33 132 132 132 132 132 0 132 132 132 132 36 46 63 27 45 132 132 68 132 132 28 22 132 68 44 132 74 132 132 22 23 132 132 132 132 132 132 132 132 54 132 57 132 132 132 52 132 132 30 132 132
132 6 36 23 30 43 132 132 132 30 132 132 132 132 50 132 132 132 132 132 41 132 26 46 132 132 13 132 132 60 45 25 132 132 132 21 132 132 132 132 34 132 132 132 132 132 23 132 20 132 0 30 49 132 132 132 132 132 132 17 44 132 26 38 132 132 28 132 132 52 132 132 31 132 132 132 132 21 33 11 31 132 27 132 33 132 35 32 132 132 33 132 132 28 50
132 132 10 34 132 19 26 132 132 132 40 132 25 132 24 24 132 132 132 132 132 132 11 17 132 132 132 132 132 132 20 132 132 132 132 10 132 132 132 41 23 132 132 132 132 132 132 28 132 132 30 0 132 19 132 132 132 132 132 17 132 132 132 132 132 132 6 132 132 23 132 132 26 132 132 132 132 9 132 31 132 132 15 132 24 132 20 9 132 132 132 132 132 2 132
132 51 132 38 79 132 132 100 132 24 132 132 132 132 95 95 132 132 132 132 10 132 132 132 132 132 48 22 132 11 90 24 132 132 132 132 33 112 132 132 132 132 132 132 24 132 68 132 65 132 49 132 0 89 132 132 132 132 132 65 31 132 70 15 132 132 132 132 132 132 132 11 132 132 132 132 132 63 17 41 132 132 59 132 82 132 132 132 38 132 76 19 132 132 2
132 132 15 132 40 17 35 12 132 132 35 132 9 132 15 6 132 132 132 132 132 40 26 5 132 132 61 132 132 132 16 132 18 132 35 28 132 24 132 31 33 38 132 132 132 11 55 9 54 132 132 19 89 0 132 132 27 132 132 34 132 34 56 132 132 132 21 22 132 8 132 132 132 132 132 132 132 28 132 132 132 132 30 132 33 34 30 22 132 132 62 132 132 21 132
45 132 132 132 132 132 49 51 30 132 23 132 37 44 59 132 132 72 132 30 132 25 132 132 132 132 132 132 132 132 132 132 40 132 22 132 132 43 58 18 132 9 45 28 132 38 132 132 132 36 132 132 132 132 0 132 29 9 45 132 132 33 132 132 35 56 132 35 132 38 132 132 132 57 56 132 132 132 132 132 132 132 132 132 132 22 132 132 132 132 132 132 61 132 132
26 132 132 132 132 132 50 132 42 132 132 12 132 25 132 132 34 3 16 40 132 132 132 132 14 17 132 47 19 132 132 132 132 34 132 132 29 132 18 132 132 132 28 45 132 132 132 132 132 46 132 132 132 132 132 0 132 132 38 132 36 132 132 132 35 30 132 132 3 132 29 132 132 34 28 33 19 132 132 132 48 28 132 12 132 132 132 132 22 16 132 132 20 132 132
132 132 42 132 132 41 51 26 132 132 34 132 20 132 36 25 132 132 132 132 132 39 132 28 132 132 132 132 132 132 40 132 13 132 34 132 132 14 132 25 132 26 132 132 132 16 132 18 132 63 132 132 132 27 29 132 0 37 132 132 132 9 132 132 132 132 132 7 132 23 132 132 132 132 132 132 132 132 132 132 132 132 132 132 132 8 48 44 132 132 132 132 132 132 132
36 132 132 132 132 132 47 132 24 132 21 132 41 36 132 132 36 64 132 21 132 21 132 132 48 132 132 132 132 132 132 132 132 55 20 132 132 51 49 19 49 12 37 23 132 132 132 132 132 27 132 132 132 132 9 132 37 0 40 132 132 41 132 132 28 47 132 42 132 42 132 132 55 48 47 132 132 132 132 132 58 132 132 132 132 30 48 132 132 61 132 132 52 132 132
28 132 132 31 132 132 14 132 17 132 23 132 132 24 132 132 7 132 37 29 132 20 132 132 31 132 132 132 132 132 132 132 132 15 24 132 132 132 132 32 18 38 34 18 132 132 132 132 132 45 132 132 132 132 45 38 132 40 0 132 30 132 132 132 17 132 132 132 132 40 132 132 19 132 132 17 28 132 132 132 20 23 27 34 132 132 20 30 37 28 132 132 132 132 132
132 19 20 33 17 26 132 41 132 44 132 132 132 132 33 38 132 132 132 132 132 132 10 33 132 132 27 132 132 132 28 42 132 132 132 7 132 57 132 132 33 132 132 132 132 132 22 132 21 132 17 17 65 34 132 132 132 132 132 0 132 132 24 132 132 132 13 132 132 40 132 132 33 132 132 132 132 12 50 24 132 132 23 132 17 132 32 24 132 132 31 132 132 16 132
132 132 132 22 132 132 32 132 132 18 53 132 132 43 132 132 34 132 23 132 23 50 132 132 41 24 51 32 23 34 132 33 132 15 132 132 22 132 132 132 34 132 132 132 9 132 132 132 132 132 44 132 31 132 132 36 132 132 30 132 0 132 132 19 132 132 132 132 132 132 26 25 27 132 132 14 16 47 30 33 22 10 38 25 132 132 37 46 18 20 132 36 132 132 29
132 132 132 132 72 132 132 31 132 132 42 132 28 132 41 31 132 132 132 60 132 47 132 132 132 132 132 132 132 132 46 132 18 132 41 132 132 15 132 33 132 32 76 132 132 23 132 25 132 68 132 132 132 34 33 132 9 41 132 132 132 0 132 132 132 88 132 12 132 31 132 132 132 89 132 132 132 132 132 132 132 132 132 132 65 11 132 132 132 132 95 132 132 132 132
132 20 132 48 19 43 132 60 132 54 132 132 132 132 50 59 132 132 132 132 64 132 31 132 132 132 22 132 132 81 45 46 132 132 132 31 132 77 132 132 132 132 132 132 132 132 3 132 6 132 26 132 70 56 132 132 132 132 132 24 132 132 0 61 132 132 132 132 132 132 132 132 132 132 132 132 132 36 54 37 132 132 46 132 26 132 132 132 132 132 8 132 132 132 72
132 41 132 23 132 132 44 132 132 9 132 132 132 132 132 132 132 132 38 132 5 132 132 132 132 132 40 29 37 23 132 17 132 32 132 132 31 132 132 132 132 132 132 132 17 132 132 132 56 132 38 132 15 132 132 132 132 132 132 132 19 132 61 0 132 132 132 132 132 132 34 17 36 132 132 31 35 49 11 28 31 29 44 132 132 132 132 132 32 39 68 29 132 132 15
15 132 132 132 132 132 29 132 7 132 20 29 132 12 132 132 10 132 42 12 132 14 132 132 24 132 132 132 132 132 132 132 132 29 20 132 132 132 29 132 132 30 20 11 132 132 132 132 132 28 132 132 132 132 35 35 132 28 17 132 132 132 132 132 0 34 132 132 35 132 132 132 132 37 32 31 35 132 132 132 37 35 132 37 132 132 132 132 132 33 132 132 132 132 132
20 132 132 132 132 132 132 132 40 132 132 19 132 23 132 132 132 33 132 29 132 46 132 132 21 47 132 132 132 132 132 132 132 132 52 132 132 132 13 132 132 56 14 44 132 132 132 132 132 22 132 132 132 132 56 30 132 47 132 132 132 88 132 132 34 0 132 132 28 132 60 132 132 4 2 132 132 132 132 132 132 132 132 41 132 77 132 132 132 132 132 132 11 132 132
132 31 8 132 23 16 132 132 132 132 132 132 29 132 23 26 132 132 132 132 132 132 6 20 132 132 132 132 132 132 18 132 132 132 132 7 132 132 132 132 132 132 132 132 132 132 132 30 33 132 28 6 132 21 132 132 132 132 132 13 132 132 132 132 132 132 0 132 132 27 132 132 132 132 132 132 132 10 132 31 132 132 19 132 18 132 26 15 132 132 132 132 132 6 132
132 132 132 132 60 132 132 20 132 132 36 132 17 132 30 19 132 132 132 132 132 132 132 132 132 132 132 132 132 132 34 132 7 132 36 132 132 9 132 28 132 30 132 132 132 11 132 13 132 68 132 132 132 22 35 132 7 42 132 132 132 12 132 132 132 132 132 0 132 20 132 132 132 132 132 132 132 132 132 132 132 132 132 132 53 15 132 132 132 132 83 132 132 132 132
24 132 132 132 132 132 132 132 132 132 132 9 132 24 132 132 34 6 19 39 132 132 132 132 12 20 132 50 21 132 132 132 132 35 132 132 32 132 16 132 132 132 26 132 132 132 132 132 132 44 132 132 132 132 132 3 132 132 132 132 132 132 132 132 35 28 132 132 0 132 32 132 132 32 26 132 22 132 132 132 132 30 132 14 132 132 132 132 132 18 132 132 17 132 132
132 132 22 50 47 25 32 18 132 132 27 132 3 132 23 12 132 132 132 51 132 32 32 6 132 132 132 132 132 132 25 132 17 51 27 33 132 24 132 23 30 30 132 35 132 10 132 9 132 132 52 23 132 8 38 132 23 42 40 40 132 31 132 132 132 132 27 20 132 0 132 132 37 132 132 132 132 31 132 51 43 132 29 132 40 28 27 22 132 132 69 132 132 24 132
132 132 132 132 132 132 132 132 132 132 132 41 132 132 132 132 132 26 15 132 34 132 132 132 42 13 132 18 12 30 132 132 132 132 132 132 4 132 47 132 132 132 132 132 19 132 132 132 132 74 132 132 132 132 132 29 132 132 132 132 26 132 132 34 132 60 132 132 32 132 0 24 132 63 57 132 22 132 132 132 132 27 132 20 132 132 132 132 12 23 132 25 49 132 33
132 132 132 39 132 132 132 132 132 25 132 132 132 132 132 132 132 48 34 132 14 132 132 132 132 33 55 13 32 9 132 32 132 132 132 132 22 132 132 132 132 132 132 132 17 132 132 132 132 132 132 132 11 132 132 132 132 132 132 132 25 132 132 17 132 132 132 132 132 132 24 0 132 132 132 39 35 132 24 132 44 33 132 132 132 132 132 132 28 132 84 12 132 132 9
132 132 132 15 132 132 8 132 132 28 35 132 132 132 132 132 26 132 132 48 132 34 132 35 132 132 43 132 132 132 132 38 132 18 35 30 132 132 132 41 7 132 132 33 36 132 132 132 132 132 31 26 132 132 132 132 132 55 19 33 27 132 132 36 132 132 132 132 132 37 132 132 0 132 132 19 132 23 41 22 5 27 12 132 132 132 10 18 42 37 132 132 132 25 132
23 132 132 132 132 132 132 132 43 132 132 23 132 27 132 132 132 37 50 31 132 49 132 132 25 51 132 82 53 132 132 132 132 132 54 132 64 132 17 132 132 58 17 46 132 132 132 132 132 22 132 132 132 132 57 34 132 48 132 132 132 89 132 132 37 4 132 132 32 132 63 132 132 0 7 132 132 132 132 132 132 132 132 45 132 78 132 132 132 46 132 132 14 132 132
18 132 132 132 132 132 132 132 38 132 132 17 132 21 132 132 132 31 132 28 132 45 132 132 18 45 132 132 132 132 132 132 132 132 132 132 132 132 10 132 132 132 13 42 132 132 132 132 132 23 132 132 132 132 56 28 132 47 132 132 132 132 132 132 32 2 132 132 26 132 57 132 132 7 0 132 132 132 132 132 132 132 132 39 132 132 132 132 132 40 132 132 9 132 132
132 132 132 22 132 132 21 132 32 27 40 132 132 32 132 132 20 132 26 132 35 36 132 132 34 132 132 132 28 132 132 41 132 2 132 132 32 132 132 132 23 132 132 34 23 132 132 132 132 132 132 132 132 132 132 33 132 132 17 132 14 132 132 31 31 132 132 132 132 132 132 39 19 132 132 0 16 132 40 34 15 8 30 25 132 132 26 132 24 19 132 132 132 132 132
34 132 132 36 132 132 36 132 39 35 132 27 132 30 132 132 27 19 10 45 38 132 132 132 26 12 132 37 12 132 132 132 132 17 132 132 20 132 33 132 132 132 132 42 19 132 132 132 132 132 132 132 132 132 132 19 132 132 28 132 16 132 132 35 35 132 132 132 22 132 22 35 132 132 132 16 0 132 132 132 31 9 132 9 132 132 132 132 10 4 132 132 132 132 132
132 25 17 26 27 26 25 132 132 40 45 132 34 132 32 132 132 132 132 132 132 132 12 26 132 132 33 132 132 132 28 42 132 132 132 7 132 132 132 47 21 132 132 132 132 132 33 132 32 132 21 9 63 28 132 132 132 132 132 12 47 132 36 49 132 132 10 132 132 31 132 132 23 132 132 132 132 0 48 22 26 132 12 132 25 132 20 12 132 132 43 132 132 7 132
132 35 132 26 63 132 132 132 132 14 132 132 132 132 81 132 132 132 132 132 11 132 132 132 132 132 31 37 132 28 132 8 132 132 132 132 42 132 132 132 132 132 132 132 28 132 52 132 49 132 33 132 17 132 132 132 132 132 132 50 30 132 54 11 132 132 132 132 132 132 132 24 41 132 132 40 132 48 0 26 37 39 47 132 132 132 132 132 44 132 60 35 132 132 18
132 17 132 12 40 132 30 132 132 20 56 132 132 132 54 132 132 132 132 132 32 132 32 46 132 132 21 132 132 52 132 21 132 33 132 26 132 132 132 132 27 132 132 132 38 132 35 132 32 132 11 31 41 132 132 132 132 132 132 24 33 132 37 28 132 132 31 132 132 51 132 132 22 132 132 34 132 22 26 0 21 38 22 132 41 132 29 29 51 132 45 132 132 29 42
132 132 132 12 132 132 13 132 36 23 38 132 132 43 132 132 27 132 40 49 36 37 132 132 47 132 42 132 42 132 132 35 132 14 39 132 44 132 132 45 12 132 132 36 31 132 132 132 132 132 31 132 132 132 132 48 132 58 20 132 22 132 132 31 37 132 132 132 132 43 132 44 5 132 132 15 31 26 37 21 0 22 16 40 132 132 15 24 37 34 132 132 132 132 132
37 132 132 27 132 132 29 132 38 27 46 34 132 33 132 132 25 28 18 46 32 43 132 132 32 20 132 38 20 132 132 42 132 10 132 132 24 132 40 132 31 132 132 40 16 132 132 132 132 132 132 132 132 132 132 28 132 132 23 132 10 132 132 29 35 132 132 132 30 132 27 33 27 132 132 8 9 132 39 38 22 0 38 18 132 132 34 132 16 12 132 132 132 132 132
132 33 24 21 39 132 14 132 132 35 36 132 32 132 132 132 132 132 132 132 132 37 23 25 132 132 40 132 132 132 132 42 132 29 36 19 132 132 132 39 10 132 132 132 47 132 132 132 42 132 27 15 59 30 132 132 132 132 27 23 38 132 46 44 132 132 19 132 132 29 132 132 12 132 132 30 132 12 47 22 16 38 0 132 36 132 9 8 54 132 54 132 132 13 132
32 132 132 132 132 132 44 132 42 132 132 22 132 30 132 132 32 11 6 45 132 132 132 132 22 7 132 38 9 132 132 132 132 26 132 132 19 132 28 132 132 132 132 46 25 132 132 132 132 54 132 132 132 132 132 12 132 132 34 132 25 132 132 132 37 41 132 132 14 132 20 132 132 45 39 25 9 132 132 132 40 18 132 0 132 132 132 132 11 6 132 132 31 132 132
132 33 18 132 7 18 132 34 132 132 132 132 42 132 24 34 132 132 132 132 132 132 13 34 132 132 40 132 132 132 19 132 47 132 132 18 132 51 132 132 132 132 132 132 132 132 25 41 26 132 33 24 82 33 132 132 132 132 132 17 132 65 26 132 132 132 18 53 132 40 132 132 132 132 132 132 132 25 132 41 132 132 36 132 0 132 132 33 132 132 30 132 132 25 132
132 132 132 132 132 132 52 34 132 132 32 132 25 132 44 132 132 132 132 49 132 37 132 34 132 132 132 132 132 132 132 132 21 132 31 132 132 22 132 23 132 21 65 132 132 23 132 25 132 57 132 132 132 34 22 132 8 30 132 132 132 11 132 132 132 77 132 15 132 28 132 132 132 78 132 132 132 132 132 132 132 132 132 132 132 0 50 48 132 132 132 132 132 132 132
132 132 29 24 132 38 6 132 132 38 28 132 30 132 42 36 26 132 132 45 132 28 132 25 132 132 47 132 132 132 39 47 132 25 28 27 132 132 132 32 3 41 132 29 132 37 132 36 132 132 35 20 132 30 132 132 48 48 20 32 37 132 132 132 132 132 26 132 132 27 132 132 10 132 132 26 132 20 132 29 15 34 9 132 132 50 0 11 132 44 132 132 132 19 132
132 37 18 29 37 27 17 132 132 43 33 132 24 132 31 28 132 132 132 132 132 35 20 17 132 132 44 132 132 132 28 49 132 35 33 17 132 132 132 34 14 43 132 132 132 31 132 29 44 132 32 9 132 22 132 132 44 132 30 24 46 132 132 132 132 132 15 132 132 22 132 132 18 132 132 132 132 12 132 29 24 132 8 132 33 48 11 0 132 132 132 132 132 9 132
132 132 132 40 132 132 44 132 132 35 132 132 132 39 132 132 37 20 6 132 34 132 132 132 32 6 132 28 5 36 132 49 132 25 132 132 10 132 132 132 132 132 132 132 16 132 132 132 132 132 132 132 38 132 132 22 132 132 37 132 18 132 132 32 132 132 132 132 132 132 12 28 42 132 132 24 10 132 44 51 37 16 54 11 132 132 132 132 0 11 132 34 132 132 36
30 132 132 39 132 132 38 132 38 39 49 23 132 28 132 132 27 16 9 42 132 44 132 132 22 12 132 132 12 132 132 132 132 20 132 132 21 132 30 132 41 132 35 41 23 132 132 132 132 52 132 132 132 132 132 16 132 61 28 132 20 132 132 39 33 132 132 132 18 132 23 132 37 46 40 19 4 132 132 132 34 12 132 6 132 132 44 132 11 0 132 132 33 132 132
132 28 47 56 23 48 132 64 132 61 132 132 71 132 55 64 132 132 132 132 70 132 37 62 132 132 29 132 132 87 49 52 77 132 132 38 132 81 132 132 132 132 132 132 82 132 10 70 13 132 33 132 76 62 132 132 132 132 132 31 132 95 8 68 132 132 132 83 132 69 132 84 132 132 132 132 132 43 60 45 132 132 54 132 30 132 132 132 132 132 0 95 132 132 78
132 132 132 132 132 132 132 132 132 132 132 132 132 132 132 132 132 51 132 132 25 132 132 132 132 37 66 6 35 8 132 132 132 132 132 132 25 132 132 132 132 132 132 132 27 132 132 132 132 132 132 132 19 132 132 132 132 132 132 132 36 132 132 29 132 132 132 132 132 132 25 12 132 132 132 132 132 132 35 132 132 132 132 132 132 132 132 132 34 132 95 0 132 132 17
18 132 132 132 132 132 132 132 132 132 132 10 132 21 132 132 132 23 36 31 132 132 132 132 13 37 132 67 39 132 132 132 132 132 132 132 49 132 5 132 132 132 16 132 132 132 132 132 132 30 132 132 132 132 61 20 132 52 132 132 132 132 132 132 132 11 132 132 17 132 49 132 132 14 9 132 132 132 132 132 132 132 132 31 132 132 132 132 132 33 132 132 0 132 132
132 32 12 32 29 21 25 132 132 46 40 132 27 132 132 132 132 132 132 132 132 132 12 18 132 132 40 132 132 132 132 49 132 132 132 10 132 132 132 41 21 132 132 132 132 132 132 132 37 132 28 2 132 21 132 132 132 132 132 16 132 132 132 132 132 132 6 132 132 24 132 132 25 132 132 132 132 7 132 29 132 132 13 132 25 132 19 9 132 132 132 132 132 0 132
132 53 132 132 80 132 132 132 132 24 132 132 132 132 95 132 132 132 132 132 10 132 132 132 132 132 49 20 40 10 132 26 132 132 132 132 31 132 132 132 132 132 132 132 23 132 132 132 67 132 50 132 2 132 132 132 132 132 132 132 29 132 72 15 132 132 132 132 132 132 33 9 132 132 132 132 132 132 18 42 132 132 132 132 132 132 132 132 36 132 78 17 132 132 0
EOF
